
Gurobi 6.5.2 (mac64) logging started Fri Aug  5 10:25:53 2016


Gurobi 6.5.2 (mac64) logging started Fri Aug  5 10:26:17 2016


Gurobi 6.5.2 (mac64) logging started Fri Aug  5 10:26:43 2016


Gurobi 6.5.2 (mac64) logging started Fri Aug  5 10:27:04 2016


Gurobi 6.5.2 (mac64) logging started Fri Aug  5 10:28:19 2016


Gurobi 6.5.2 (mac64) logging started Fri Aug  5 10:29:27 2016


Gurobi 6.5.2 (mac64) logging started Fri Aug  5 10:29:52 2016


Gurobi 6.5.2 (mac64) logging started Fri Aug  5 10:29:54 2016

Optimize a model with 1254 rows, 400 columns and 1798 nonzeros
Coefficient statistics:
  Matrix range    [5e-01, 1e+00]
  Objective range [1e-02, 6e+00]
  Bounds range    [1e+00, 2e+00]
  RHS range       [1e+00, 2e+00]
Presolve removed 878 rows and 259 columns
Presolve time: 0.00s

Explored 0 nodes (0 simplex iterations) in 0.00 seconds
Thread count was 1 (of 8 available processors)

Model is infeasible
Best objective -, best bound -, gap -

Gurobi 6.5.2 (mac64) logging started Fri Aug  5 10:30:01 2016

Optimize a model with 1254 rows, 400 columns and 1798 nonzeros
Coefficient statistics:
  Matrix range    [5e-01, 1e+00]
  Objective range [1e-02, 6e+00]
  Bounds range    [1e+00, 2e+00]
  RHS range       [1e+00, 2e+00]
Presolve removed 878 rows and 259 columns
Presolve time: 0.00s

Explored 0 nodes (0 simplex iterations) in 0.00 seconds
Thread count was 1 (of 8 available processors)

Model is infeasible
Best objective -, best bound -, gap -

Gurobi 6.5.2 (mac64) logging started Fri Aug  5 10:30:57 2016

Optimize a model with 1254 rows, 400 columns and 1798 nonzeros
Coefficient statistics:
  Matrix range    [5e-01, 1e+00]
  Objective range [1e-02, 6e+00]
  Bounds range    [1e+00, 2e+00]
  RHS range       [1e+00, 2e+00]
Presolve removed 878 rows and 259 columns
Presolve time: 0.00s

Explored 0 nodes (0 simplex iterations) in 0.00 seconds
Thread count was 1 (of 8 available processors)

Model is infeasible
Best objective -, best bound -, gap -

Gurobi 6.5.2 (mac64) logging started Fri Aug  5 10:30:58 2016

Optimize a model with 1254 rows, 400 columns and 1798 nonzeros
Coefficient statistics:
  Matrix range    [5e-01, 1e+00]
  Objective range [1e-02, 6e+00]
  Bounds range    [1e+00, 2e+00]
  RHS range       [1e+00, 2e+00]
Presolve removed 878 rows and 259 columns
Presolve time: 0.00s

Explored 0 nodes (0 simplex iterations) in 0.00 seconds
Thread count was 1 (of 8 available processors)

Model is infeasible
Best objective -, best bound -, gap -

Gurobi 6.5.2 (mac64) logging started Fri Aug  5 10:32:52 2016

Optimize a model with 1254 rows, 400 columns and 1798 nonzeros
Coefficient statistics:
  Matrix range    [5e-01, 1e+00]
  Objective range [1e-02, 6e+00]
  Bounds range    [1e+00, 2e+00]
  RHS range       [1e+00, 2e+00]
Presolve removed 878 rows and 259 columns
Presolve time: 0.00s

Explored 0 nodes (0 simplex iterations) in 0.00 seconds
Thread count was 1 (of 8 available processors)

Model is infeasible
Best objective -, best bound -, gap -

Gurobi 6.5.2 (mac64) logging started Fri Aug  5 10:34:35 2016

Optimize a model with 1254 rows, 400 columns and 1798 nonzeros
Coefficient statistics:
  Matrix range    [1e+00, 1e+00]
  Objective range [1e-02, 6e+00]
  Bounds range    [1e+00, 1e+00]
  RHS range       [1e+00, 1e+00]
Found heuristic solution: objective 9.01
Presolve removed 1254 rows and 400 columns
Presolve time: 0.00s
Presolve: All rows and columns removed

Explored 0 nodes (0 simplex iterations) in 0.01 seconds
Thread count was 1 (of 8 available processors)

Optimal solution found (tolerance 1.00e-04)
Best objective 9.000000000000e+00, best bound 9.000000000000e+00, gap 0.0%

Gurobi 6.5.2 (mac64) logging started Fri Aug  5 10:34:44 2016

Optimize a model with 1254 rows, 400 columns and 1798 nonzeros
Coefficient statistics:
  Matrix range    [1e+00, 1e+00]
  Objective range [1e-02, 6e+00]
  Bounds range    [1e+00, 1e+00]
  RHS range       [1e+00, 1e+00]
Presolve removed 878 rows and 259 columns
Presolve time: 0.00s

Explored 0 nodes (0 simplex iterations) in 0.00 seconds
Thread count was 1 (of 8 available processors)

Model is infeasible
Best objective -, best bound -, gap -

Gurobi 6.5.2 (mac64) logging started Fri Aug  5 10:34:53 2016

Optimize a model with 1254 rows, 400 columns and 1798 nonzeros
Coefficient statistics:
  Matrix range    [5e-01, 1e+00]
  Objective range [1e-02, 6e+00]
  Bounds range    [1e+00, 2e+00]
  RHS range       [1e+00, 2e+00]
Found heuristic solution: objective 12.01
Presolve removed 1254 rows and 400 columns
Presolve time: 0.00s
Presolve: All rows and columns removed

Explored 0 nodes (0 simplex iterations) in 0.00 seconds
Thread count was 1 (of 8 available processors)

Optimal solution found (tolerance 1.00e-04)
Best objective 9.010000000000e+00, best bound 9.010000000000e+00, gap 0.0%

Gurobi 6.5.2 (mac64) logging started Fri Aug  5 10:35:13 2016

Optimize a model with 1254 rows, 400 columns and 1798 nonzeros
Coefficient statistics:
  Matrix range    [5e-01, 1e+00]
  Objective range [1e-02, 6e+00]
  Bounds range    [1e+00, 2e+00]
  RHS range       [1e+00, 2e+00]
Presolve removed 892 rows and 259 columns
Presolve time: 0.00s

Explored 0 nodes (0 simplex iterations) in 0.00 seconds
Thread count was 1 (of 8 available processors)

Model is infeasible
Best objective -, best bound -, gap -

Gurobi 6.5.2 (mac64) logging started Fri Aug  5 10:35:27 2016

Optimize a model with 1254 rows, 400 columns and 1798 nonzeros
Coefficient statistics:
  Matrix range    [5e-01, 1e+00]
  Objective range [1e-02, 6e+00]
  Bounds range    [1e+00, 2e+00]
  RHS range       [1e+00, 2e+00]
Presolve removed 903 rows and 259 columns
Presolve time: 0.00s

Explored 0 nodes (0 simplex iterations) in 0.00 seconds
Thread count was 1 (of 8 available processors)

Model is infeasible
Best objective -, best bound -, gap -

Gurobi 6.5.2 (mac64) logging started Fri Aug  5 10:35:31 2016

Optimize a model with 1254 rows, 400 columns and 1798 nonzeros
Coefficient statistics:
  Matrix range    [5e-01, 1e+00]
  Objective range [1e-02, 6e+00]
  Bounds range    [1e+00, 2e+00]
  RHS range       [1e+00, 2e+00]
Presolve removed 903 rows and 259 columns
Presolve time: 0.00s

Explored 0 nodes (0 simplex iterations) in 0.00 seconds
Thread count was 1 (of 8 available processors)

Model is infeasible
Best objective -, best bound -, gap -

Gurobi 6.5.2 (mac64) logging started Fri Aug  5 10:35:38 2016

Optimize a model with 1254 rows, 400 columns and 1798 nonzeros
Coefficient statistics:
  Matrix range    [5e-01, 1e+00]
  Objective range [1e-02, 6e+00]
  Bounds range    [1e+00, 2e+00]
  RHS range       [1e+00, 2e+00]
Presolve removed 914 rows and 259 columns
Presolve time: 0.00s

Explored 0 nodes (0 simplex iterations) in 0.00 seconds
Thread count was 1 (of 8 available processors)

Model is infeasible
Best objective -, best bound -, gap -

Gurobi 6.5.2 (mac64) logging started Fri Aug  5 10:35:39 2016

Optimize a model with 1254 rows, 400 columns and 1798 nonzeros
Coefficient statistics:
  Matrix range    [5e-01, 1e+00]
  Objective range [1e-02, 6e+00]
  Bounds range    [1e+00, 2e+00]
  RHS range       [1e+00, 2e+00]
Presolve removed 914 rows and 259 columns
Presolve time: 0.00s

Explored 0 nodes (0 simplex iterations) in 0.00 seconds
Thread count was 1 (of 8 available processors)

Model is infeasible
Best objective -, best bound -, gap -

Gurobi 6.5.2 (mac64) logging started Fri Aug  5 10:36:44 2016

Optimize a model with 1254 rows, 400 columns and 1798 nonzeros
Coefficient statistics:
  Matrix range    [5e-01, 1e+00]
  Objective range [1e-02, 6e+00]
  Bounds range    [1e+00, 2e+00]
  RHS range       [1e+00, 2e+00]
Presolve removed 896 rows and 259 columns
Presolve time: 0.00s

Explored 0 nodes (0 simplex iterations) in 0.00 seconds
Thread count was 1 (of 8 available processors)

Model is infeasible
Best objective -, best bound -, gap -

Gurobi 6.5.2 (mac64) logging started Fri Aug  5 10:36:45 2016

Optimize a model with 1254 rows, 400 columns and 1798 nonzeros
Coefficient statistics:
  Matrix range    [5e-01, 1e+00]
  Objective range [1e-02, 6e+00]
  Bounds range    [1e+00, 2e+00]
  RHS range       [1e+00, 2e+00]
Presolve removed 896 rows and 259 columns
Presolve time: 0.00s

Explored 0 nodes (0 simplex iterations) in 0.00 seconds
Thread count was 1 (of 8 available processors)

Model is infeasible
Best objective -, best bound -, gap -

Gurobi 6.5.2 (mac64) logging started Fri Aug  5 10:38:00 2016

Optimize a model with 1254 rows, 400 columns and 1798 nonzeros
Coefficient statistics:
  Matrix range    [5e-01, 1e+00]
  Objective range [1e-02, 6e+00]
  Bounds range    [1e+00, 2e+00]
  RHS range       [1e+00, 2e+00]
Presolve removed 887 rows and 259 columns
Presolve time: 0.00s

Explored 0 nodes (0 simplex iterations) in 0.00 seconds
Thread count was 1 (of 8 available processors)

Model is infeasible
Best objective -, best bound -, gap -

Gurobi 6.5.2 (mac64) logging started Fri Aug  5 10:38:12 2016

Optimize a model with 1254 rows, 400 columns and 1798 nonzeros
Coefficient statistics:
  Matrix range    [5e-01, 1e+00]
  Objective range [1e-02, 6e+00]
  Bounds range    [1e+00, 2e+00]
  RHS range       [1e+00, 2e+00]
Found heuristic solution: objective 9
Presolve removed 1254 rows and 400 columns
Presolve time: 0.00s
Presolve: All rows and columns removed

Explored 0 nodes (0 simplex iterations) in 0.00 seconds
Thread count was 1 (of 8 available processors)

Optimal solution found (tolerance 1.00e-04)
Best objective 9.000000000000e+00, best bound 9.000000000000e+00, gap 0.0%

Gurobi 6.5.2 (mac64) logging started Fri Aug  5 10:38:30 2016

Optimize a model with 1254 rows, 400 columns and 1798 nonzeros
Coefficient statistics:
  Matrix range    [5e-01, 1e+00]
  Objective range [1e-02, 6e+00]
  Bounds range    [1e+00, 2e+00]
  RHS range       [1e+00, 2e+00]
Found heuristic solution: objective 11.01
Presolve removed 1254 rows and 400 columns
Presolve time: 0.00s
Presolve: All rows and columns removed

Explored 0 nodes (0 simplex iterations) in 0.00 seconds
Thread count was 1 (of 8 available processors)

Optimal solution found (tolerance 1.00e-04)
Best objective 1.101000000000e+01, best bound 1.101000000000e+01, gap 0.0%

Gurobi 6.5.2 (mac64) logging started Fri Aug  5 10:51:42 2016

Optimize a model with 1254 rows, 400 columns and 1798 nonzeros
Coefficient statistics:
  Matrix range    [5e-01, 1e+00]
  Objective range [1e-02, 6e+00]
  Bounds range    [1e+00, 2e+00]
  RHS range       [1e+00, 2e+00]
Found heuristic solution: objective 11.01
Presolve removed 1254 rows and 400 columns
Presolve time: 0.00s
Presolve: All rows and columns removed

Explored 0 nodes (0 simplex iterations) in 0.00 seconds
Thread count was 1 (of 8 available processors)

Optimal solution found (tolerance 1.00e-04)
Best objective 1.101000000000e+01, best bound 1.101000000000e+01, gap 0.0%

Gurobi 6.5.2 (mac64) logging started Fri Aug  5 11:05:58 2016

Optimize a model with 806689 rows, 269336 columns and 1135217 nonzeros
Coefficient statistics:
  Matrix range    [1e+00, 1e+00]
  Objective range [1e-03, 1e+00]
  Bounds range    [1e+00, 1e+00]
  RHS range       [1e+00, 1e+00]
Found heuristic solution: objective 37
Presolve removed 804635 rows and 266830 columns
Presolve time: 0.49s
Presolved: 2054 rows, 2506 columns, 7274 nonzeros
Variable types: 0 continuous, 2506 integer (2506 binary)

Root relaxation: objective 7.167170e+00, 2623 iterations, 0.27 seconds

    Nodes    |    Current Node    |     Objective Bounds      |     Work
 Expl Unexpl |  Obj  Depth IntInf | Incumbent    BestBd   Gap | It/Node Time

     0     0    7.16717    0  175   37.00000    7.16717  80.6%     -    0s
H    0     0                      28.0000000    7.16717  74.4%     -    0s
H    0     0                      10.0040000    7.16717  28.4%     -    0s
     0     0    7.97570    0  217   10.00400    7.97570  20.3%     -    1s
     0     0    7.97572    0  217   10.00400    7.97572  20.3%     -    1s
     0     0    8.00367    0   43   10.00400    8.00367  20.0%     -    1s
     0     0    8.05620    0  273   10.00400    8.05620  19.5%     -    1s
H    0     0                      10.0030000    8.05620  19.5%     -    1s
     0     0    8.21358    0  341   10.00300    8.21358  17.9%     -    1s
H    0     0                       9.0040000    8.21358  8.78%     -    1s
     0     0    8.38569    0  246    9.00400    8.38569  6.87%     -    1s
     0     0    8.50455    0  327    9.00400    8.50455  5.55%     -    1s
     0     0    8.50455    0   75    9.00400    8.50455  5.55%     -    1s
H    0     0                       9.0030000    8.50455  5.54%     -    1s
     0     0    8.50455    0  196    9.00300    8.50455  5.54%     -    1s
     0     0    8.50455    0  315    9.00300    8.50455  5.54%     -    1s
     0     0    8.61464    0  217    9.00300    8.61464  4.31%     -    2s
     0     0    8.61464    0  145    9.00300    8.61464  4.31%     -    2s
     0     0    8.61464    0  224    9.00300    8.61464  4.31%     -    2s
     0     0    8.61464    0  212    9.00300    8.61464  4.31%     -    2s
     0     0    8.75500    0  105    9.00300    8.75500  2.75%     -    2s
     0     0    8.75500    0  117    9.00300    8.75500  2.75%     -    2s
     0     0    8.75500    0  208    9.00300    8.75500  2.75%     -    2s
     0     0     cutoff    0         9.00300    9.00201  0.01%     -    2s

Explored 0 nodes (7926 simplex iterations) in 2.25 seconds
Thread count was 8 (of 8 available processors)

Optimal solution found (tolerance 1.00e-04)
Best objective 9.003000000000e+00, best bound 9.003000000000e+00, gap 0.0%

Gurobi 6.5.2 (mac64) logging started Mon Aug 22 00:26:50 2016


Gurobi 6.5.2 (mac64) logging started Mon Aug 22 00:27:14 2016


Gurobi 6.5.2 (mac64) logging started Mon Aug 22 00:30:14 2016


Gurobi 6.5.2 (mac64) logging started Mon Aug 22 09:37:40 2016

Optimize a model with 849697 rows, 283728 columns and 1196033 nonzeros
Coefficient statistics:
  Matrix range    [1e+00, 1e+00]
  Objective range [1e-03, 1e+00]
  Bounds range    [1e+00, 1e+00]
  RHS range       [1e+00, 1e+00]
Presolve removed 847702 rows and 281300 columns
Presolve time: 0.45s
Presolved: 1995 rows, 2428 columns, 7106 nonzeros
Variable types: 0 continuous, 2428 integer (2428 binary)
Found heuristic solution: objective 21.0000000
Found heuristic solution: objective 19.0010000

Root relaxation: objective 5.185742e+00, 1999 iterations, 0.14 seconds

    Nodes    |    Current Node    |     Objective Bounds      |     Work
 Expl Unexpl |  Obj  Depth IntInf | Incumbent    BestBd   Gap | It/Node Time

     0     0    5.18574    0   58   19.00100    5.18574  72.7%     -    1s
H    0     0                       7.0030000    5.18574  25.9%     -    1s
H    0     0                       7.0020000    5.18574  25.9%     -    1s
     0     0    5.70045    0  136    7.00200    5.70045  18.6%     -    1s
     0     0    5.70059    0  135    7.00200    5.70059  18.6%     -    1s
     0     0    5.98056    0   82    7.00200    5.98056  14.6%     -    1s
     0     0    5.98580    0   82    7.00200    5.98580  14.5%     -    1s
     0     0    6.24380    0  128    7.00200    6.24380  10.8%     -    1s
     0     0    6.24380    0   57    7.00200    6.24380  10.8%     -    1s
     0     0    6.24380    0  106    7.00200    6.24380  10.8%     -    1s
     0     0    6.24380    0  136    7.00200    6.24380  10.8%     -    1s
     0     0    6.40885    0  195    7.00200    6.40885  8.47%     -    2s
     0     0    6.40885    0   55    7.00200    6.40885  8.47%     -    2s
     0     0    6.40885    0  161    7.00200    6.40885  8.47%     -    2s
     0     0    6.40885    0  183    7.00200    6.40885  8.47%     -    2s
     0     0    6.50995    0  138    7.00200    6.50995  7.03%     -    2s
     0     0    6.50995    0   54    7.00200    6.50995  7.03%     -    2s
     0     0    6.50995    0  120    7.00200    6.50995  7.03%     -    2s
     0     0    6.50995    0  137    7.00200    6.50995  7.03%     -    2s
     0     0    6.52371    0  127    7.00200    6.52371  6.83%     -    2s
     0     0    6.52371    0   47    7.00200    6.52371  6.83%     -    2s
     0     0    6.56513    0  116    7.00200    6.56513  6.24%     -    2s
     0     0    6.58933    0   49    7.00200    6.58933  5.89%     -    2s
     0     0    6.58963    0   49    7.00200    6.58963  5.89%     -    2s
     0     0    6.62010    0   54    7.00200    6.62010  5.45%     -    2s
     0     0    6.63350    0   60    7.00200    6.63350  5.26%     -    2s
     0     0    6.67091    0   65    7.00200    6.67091  4.73%     -    2s
     0     0    6.67102    0   65    7.00200    6.67102  4.73%     -    2s
     0     0    6.71253    0  128    7.00200    6.71253  4.13%     -    2s
     0     0    6.71253    0   12    7.00200    6.71253  4.13%     -    2s
     0     0    6.71253    0   11    7.00200    6.71253  4.13%     -    2s
     0     0    6.71253    0   11    7.00200    6.71253  4.13%     -    2s
     0     0     cutoff    0         7.00200    7.00101  0.01%     -    2s

Cutting planes:
  Gomory: 4
  Clique: 1
  MIR: 1
  Zero half: 10

Explored 0 nodes (9954 simplex iterations) in 2.54 seconds
Thread count was 8 (of 8 available processors)

Optimal solution found (tolerance 1.00e-04)
Best objective 7.002000000000e+00, best bound 7.002000000000e+00, gap 0.0%

Gurobi 6.5.2 (mac64) logging started Mon Aug 22 09:38:58 2016


Gurobi 6.5.2 (mac64) logging started Mon Aug 22 09:40:33 2016


Gurobi 6.5.2 (mac64) logging started Mon Aug 22 09:40:56 2016


Gurobi 6.5.2 (mac64) logging started Mon Aug 22 09:46:15 2016


Gurobi 6.5.2 (mac64) logging started Mon Aug 22 09:46:32 2016

Optimize a model with 5314441 rows, 1868028 columns and 8490977 nonzeros
Coefficient statistics:
  Matrix range    [1e+00, 1e+00]
  Objective range [1e-03, 1e+00]
  Bounds range    [1e+00, 1e+00]
  RHS range       [1e+00, 1e+00]
Presolve removed 5314335 rows and 1867800 columns (presolve time = 5s) ...
Presolve removed 5314430 rows and 1868007 columns
Presolve time: 8.98s
Presolved: 11 rows, 21 columns, 42 nonzeros
Variable types: 0 continuous, 21 integer (21 binary)
Found heuristic solution: objective 18.0000000

Root simplex log...

Iteration    Objective       Primal Inf.    Dual Inf.      Time
       0   -1.1000000e+01   1.000000e+01   0.000000e+00     13s

Root relaxation: cutoff, 1 iterations, 0.00 seconds

    Nodes    |    Current Node    |     Objective Bounds      |     Work
 Expl Unexpl |  Obj  Depth IntInf | Incumbent    BestBd   Gap | It/Node Time

     0     0     cutoff    0        18.00000   17.00002  5.56%     -   13s

Explored 0 nodes (1 simplex iterations) in 13.42 seconds
Thread count was 8 (of 8 available processors)

Optimal solution found (tolerance 1.00e-04)
Best objective 1.800000000000e+01, best bound 1.800000000000e+01, gap 0.0%

Gurobi 6.5.2 (mac64) logging started Mon Aug 22 09:49:58 2016

Optimize a model with 5324329 rows, 1871530 columns and 8507045 nonzeros
Coefficient statistics:
  Matrix range    [1e+00, 1e+00]
  Objective range [1e-03, 1e+00]
  Bounds range    [1e+00, 1e+00]
  RHS range       [1e+00, 1e+00]
Presolve removed 5323980 rows and 1870718 columns (presolve time = 5s) ...
Presolve removed 5324005 rows and 1870805 columns
Presolve time: 7.70s
Presolved: 324 rows, 725 columns, 1565 nonzeros
Variable types: 0 continuous, 725 integer (725 binary)
Found heuristic solution: objective 39.0000000
Found heuristic solution: objective 35.0000000

Root simplex log...

Iteration    Objective       Primal Inf.    Dual Inf.      Time
       0   -2.2699900e+02   1.140000e+02   0.000000e+00     11s
      87    1.4000000e+01   0.000000e+00   0.000000e+00     11s

Root relaxation: objective 1.400000e+01, 87 iterations, 0.00 seconds

    Nodes    |    Current Node    |     Objective Bounds      |     Work
 Expl Unexpl |  Obj  Depth IntInf | Incumbent    BestBd   Gap | It/Node Time

*    0     0               0      14.0000000   14.00000  0.00%     -   11s

Explored 0 nodes (87 simplex iterations) in 11.67 seconds
Thread count was 8 (of 8 available processors)

Optimal solution found (tolerance 1.00e-04)
Best objective 1.400000000000e+01, best bound 1.400000000000e+01, gap 0.0%
